Data path: /scratch/opt/lxu/CFLG/benchmarks/random_B
Instance: r_30_0.4_188.txt
Result path: /scratch/opt/lxu/CFLG/results/random_B
Solver: Gurobi
Time limit: 7200
Formulation: LEVFP
Cover: Large
julia --project=. src/main.jl /scratch/opt/lxu/CFLG/benchmarks/random_B r_30_0.4_188.txt /scratch/opt/lxu/CFLG/results/random_B Gurobi 7200 LEVFP Large
The latest version of Julia in the `release` channel is 1.11.6+0.x64.linux.gnu. You currently have `1.11.4+0.x64.linux.gnu` installed. Run:

  juliaup update

in your terminal shell to install Julia 1.11.6+0.x64.linux.gnu and update the `release` channel to that version.
/scratch/opt/lxu/CFLG/benchmarks/random_B Gurobi 7200.0 /scratch/opt/lxu/CFLG/results/random_B r_30_0.4_188.txt LEVFP Large
/scratch/opt/lxu/CFLG/benchmarks/random_B/r_30_0.4_188.txt

 read graph
data loaded

problem_graph/original graph: node: 30/30 edge: 188/188 dlt: 1.2131512127745345 break_avg_len: 0.6065756063872673 break_max_len: 0.9917999550727499elapsed CPU time: 0.035594 seconds
Set parameter TokenServer to value "solice01.zib.de"
Set parameter Threads to value 1
Set parameter OutputFlag to value 1
Set parameter MIPGap to value 0.0001
Set parameter TimeLimit to value 7199.964406

 model loaded

Gurobi Optimizer version 12.0.1 build v12.0.1rc0 (linux64 - "Debian GNU/Linux 12 (bookworm)")

CPU model: Intel(R) Xeon(R) Gold 5222 CPU @ 3.80GHz, instruction set [SSE2|AVX|AVX2|AVX512]
Thread count: 8 physical cores, 16 logical processors, using up to 1 threads

Non-default parameters:
TimeLimit  7199.964406
Threads  1

Optimize a model with 28508 rows, 12636 columns and 83578 nonzeros
Model fingerprint: 0xb44eb154
Variable types: 218 continuous, 12418 integer (12418 binary)
Coefficient statistics:
  Matrix range     [1e-06, 2e+00]
  Objective range  [1e+00, 1e+00]
  Bounds range     [3e-01, 1e+00]
  RHS range        [3e-01, 2e+01]
Found heuristic solution: objective 28.0000000
Presolve removed 7488 rows and 26 columns
Presolve time: 0.39s
Presolved: 21020 rows, 12610 columns, 76816 nonzeros
Variable types: 218 continuous, 12392 integer (12392 binary)

Root relaxation: objective 9.342360e-01, 7619 iterations, 0.35 seconds (0.64 work units)

    Nodes    |    Current Node    |     Objective Bounds      |     Work
 Expl Unexpl |  Obj  Depth IntInf | Incumbent    BestBd   Gap | It/Node Time

     0     0    0.93424    0 1371   28.00000    0.93424  96.7%     -    1s
H    0     0                       5.0000000    0.93424  81.3%     -    2s
H    0     0                       4.0000000    0.93424  76.6%     -    2s
H    0     0                       3.0000000    0.93424  68.9%     -    2s
     0     0    1.00000    0 1497    3.00000    1.00000  66.7%     -    7s
     0     0    1.00000    0 1380    3.00000    1.00000  66.7%     -   10s
     0     0    1.00000    0 1733    3.00000    1.00000  66.7%     -   12s
H    0     0                       2.0000000    1.00000  50.0%     -   13s
     0     0    1.00000    0 1612    2.00000    1.00000  50.0%     -   13s
     0     0    1.00000    0 1301    2.00000    1.00000  50.0%     -   13s
     0     0    1.00000    0 1206    2.00000    1.00000  50.0%     -   13s

Cutting planes:
  Learned: 7
  Implied bound: 3
  Clique: 2
  MIR: 4
  Flow cover: 20
  RLT: 68
  Relax-and-lift: 1
  BQP: 12
  PSD: 1

Explored 1 nodes (18990 simplex iterations) in 16.13 seconds (18.25 work units)
Thread count was 1 (of 16 available processors)

Solution count 5: 2 3 4 ... 28

Optimal solution found (tolerance 1.00e-04)
Best objective 2.000000000000e+00, best bound 2.000000000000e+00, gap 0.0000%

User-callback calls 5743, time in user-callback 0.02 sec
Stat(MathOptInterface.OPTIMAL, 2.0, 2.0, 0.0, 0.0, 0.035594, 16.133224964141846, 1, Main.CFLG.LEVFP, "", #undef)
